c description: Random 3-CNF over 18 variables and 77 clauses
c generator: CNFgen (0.9.2)
c copyright: (C) 2012-2022 Massimo Lauria <massimo.lauria@uniroma1.it>
c url: https://massimolauria.net/cnfgen
c command line: cnfgen --output CNF_4.28/18_bit_77_492.cnf randkcnf 3 18 77
c
p cnf 18 77
-3 -9 14 0
-10 15 18 0
-10 -14 -18 0
3 4 -18 0
6 -10 -17 0
-1 12 17 0
-3 11 12 0
-8 -12 18 0
-10 14 18 0
6 12 14 0
-5 -7 -18 0
4 -13 -16 0
-1 -7 -13 0
1 -10 -11 0
-3 12 14 0
4 6 10 0
7 -10 14 0
-6 -13 -17 0
-2 -4 -9 0
-1 -4 18 0
-6 7 -17 0
-14 15 -17 0
1 -16 -17 0
-2 -16 -18 0
4 6 -9 0
-1 -13 14 0
-6 -17 -18 0
1 5 -12 0
2 -14 18 0
-7 12 13 0
-7 -16 17 0
-6 8 17 0
1 15 16 0
2 8 -18 0
10 -12 -13 0
-7 -9 13 0
1 -2 8 0
-10 -12 -16 0
2 -7 15 0
-5 9 11 0
1 -14 15 0
8 12 -15 0
-10 14 15 0
-4 17 18 0
1 5 16 0
-1 6 -16 0
10 -14 -17 0
-2 -3 13 0
-2 4 -5 0
-5 8 10 0
-7 -8 -11 0
-3 4 -5 0
4 -9 -18 0
3 -7 -16 0
7 -14 -15 0
-6 8 -11 0
2 9 13 0
10 -12 17 0
4 -5 -18 0
-5 -11 13 0
-4 9 -10 0
-2 -4 12 0
3 -9 -16 0
-3 -4 -8 0
-5 -8 -15 0
1 12 14 0
5 -15 18 0
-7 14 16 0
1 8 11 0
-4 -14 15 0
-4 -10 -12 0
-16 17 -18 0
1 -13 15 0
7 -13 18 0
-3 -7 17 0
-1 -8 -10 0
-11 -13 -15 0
